examples/inputs/input15.dzn
n = 53;
l = 450;
s = 450;
r = 450;
f = 100;
forbidden = [| 38, 4
	| 32, 15
	| 13, 25
	| 50, 1
	| 5, 38
	| 48, 46
	| 10, 5
	| 48, 16
	| 7, 36
	| 14, 53
	| 52, 12
	| 50, 35
	| 7, 52
	| 14, 10
	| 9, 53
	| 45, 39
	| 52, 25
	| 13, 28
	| 4, 20
	| 7, 21
	| 48, 25
	| 37, 28
	| 36, 32
	| 43, 2
	| 34, 27
	| 33, 42
	| 40, 1
	| 12, 50
	| 17, 18
	| 23, 51
	| 43, 15
	| 36, 2
	| 43, 32
	| 41, 21
	| 22, 33
	| 49, 31
	| 20, 20
	| 14, 5
	| 40, 10
	| 34, 31
	| 53, 2
	| 36, 46
	| 35, 9
	| 46, 15
	| 42, 36
	| 42, 19
	| 40, 4
	| 1, 5
	| 5, 2
	| 11, 52
	| 11, 46
	| 13, 33
	| 10, 2
	| 10, 18
	| 48, 9
	| 8, 27
	| 32, 49
	| 26, 43
	| 29, 21
	| 16, 16
	| 43, 47
	| 44, 11
	| 21, 42
	| 9, 26
	| 19, 48
	| 38, 44
	| 9, 24
	| 18, 6
	| 42, 8
	| 28, 50
	| 26, 34
	| 51, 39
	| 7, 39
	| 39, 43
	| 32, 25
	| 17, 17
	| 42, 40
	| 22, 47
	| 49, 36
	| 23, 2
	| 7, 33
	| 2, 31
	| 30, 24
	| 29, 19
	| 53, 53
	| 22, 51
	| 10, 12
	| 41, 42
	| 51, 42
	| 34, 52
	| 5, 44
	| 2, 43
	| 46, 44
	| 33, 48
	| 49, 10
	| 1, 2
	| 7, 25
	| 40, 24
	| 23, 29
	| 8, 24
	|];