examples/inputs/input15.lp
#const n = 53.
#const l = 450.
#const s = 450.
#const r = 450.
#const f = 100.
val(38, 4, xxx).
val(32, 15, xxx).
val(13, 25, xxx).
val(50, 1, xxx).
val(5, 38, xxx).
val(48, 46, xxx).
val(10, 5, xxx).
val(48, 16, xxx).
val(7, 36, xxx).
val(14, 53, xxx).
val(52, 12, xxx).
val(50, 35, xxx).
val(7, 52, xxx).
val(14, 10, xxx).
val(9, 53, xxx).
val(45, 39, xxx).
val(52, 25, xxx).
val(13, 28, xxx).
val(4, 20, xxx).
val(7, 21, xxx).
val(48, 25, xxx).
val(37, 28, xxx).
val(36, 32, xxx).
val(43, 2, xxx).
val(34, 27, xxx).
val(33, 42, xxx).
val(40, 1, xxx).
val(12, 50, xxx).
val(17, 18, xxx).
val(23, 51, xxx).
val(43, 15, xxx).
val(36, 2, xxx).
val(43, 32, xxx).
val(41, 21, xxx).
val(22, 33, xxx).
val(49, 31, xxx).
val(20, 20, xxx).
val(14, 5, xxx).
val(40, 10, xxx).
val(34, 31, xxx).
val(53, 2, xxx).
val(36, 46, xxx).
val(35, 9, xxx).
val(46, 15, xxx).
val(42, 36, xxx).
val(42, 19, xxx).
val(40, 4, xxx).
val(1, 5, xxx).
val(5, 2, xxx).
val(11, 52, xxx).
val(11, 46, xxx).
val(13, 33, xxx).
val(10, 2, xxx).
val(10, 18, xxx).
val(48, 9, xxx).
val(8, 27, xxx).
val(32, 49, xxx).
val(26, 43, xxx).
val(29, 21, xxx).
val(16, 16, xxx).
val(43, 47, xxx).
val(44, 11, xxx).
val(21, 42, xxx).
val(9, 26, xxx).
val(19, 48, xxx).
val(38, 44, xxx).
val(9, 24, xxx).
val(18, 6, xxx).
val(42, 8, xxx).
val(28, 50, xxx).
val(26, 34, xxx).
val(51, 39, xxx).
val(7, 39, xxx).
val(39, 43, xxx).
val(32, 25, xxx).
val(17, 17, xxx).
val(42, 40, xxx).
val(22, 47, xxx).
val(49, 36, xxx).
val(23, 2, xxx).
val(7, 33, xxx).
val(2, 31, xxx).
val(30, 24, xxx).
val(29, 19, xxx).
val(53, 53, xxx).
val(22, 51, xxx).
val(10, 12, xxx).
val(41, 42, xxx).
val(51, 42, xxx).
val(34, 52, xxx).
val(5, 44, xxx).
val(2, 43, xxx).
val(46, 44, xxx).
val(33, 48, xxx).
val(49, 10, xxx).
val(1, 2, xxx).
val(7, 25, xxx).
val(40, 24, xxx).
val(23, 29, xxx).
val(8, 24, xxx).